c Qdimacs file from skolem function generator
p cnf 865 2274
c a 549 550 551 552 553 554 555 556 557 558 559 560 561 562 563 564 565 566 567 568 569 570 571 572 573 574 575 576 577 578 579 580 581 582 583 584 585 586 587 588 589 590 591 592 593 594 595 596 597 598 599 600 601 602 603 604 605 606 607 608 609 610 611 612 613 614 615 616 617 618 619 620 621 622 623 624 625 626 627 628 629 630 631 632 633 634 635 636 637 638 639 640 641 642 643 644 645 646 647 648 649 650 651 652 653 654 655 656 657 658 659 660 661 662 663 664 665 666 667 668 669 670 671 672 673 674 675 676 677 678 679 680 681 682 683 684 685 686 687 688 689 690 691 692 693 694 695 696 697 698 699 700 701 702 703 704 705 706 707 708 709 710 711 712 713 714 715 716 717 718 719 720 721 722 723 724 725 726 727 728 729 730 731 732 733 734 735 736 737 738 739 740 741 742 743 744 745 746 747 748 749 750 751 752 753 754 755 756 757 758 759 760 761 762 763 764 765 766 767 768 769 770 771 772 773 774 775 776 777 778 779 780 781 782 783 784 785 786 787 788 789 790 791 792 793 794 795 796 797 798 799 800 801 802 803 804 805 806 807 808 809 810 811 812 813 814 815 816 817 818 819 820 821 822 823 824 825 826 827 828 829 830 831 832 833 834 835 836 837 838 839 840 841 842 843 844 845 846 847 848 849 850 851 852 853 854 855 856 857 858 859 860 861 862 863 864 0
c e 520 521 522 523 524 525 526 527 528 529 530 531 532 533 534 535 536 537 538 539 540 541 542 543 544 545 546 547 548 1 2 3 4 5 6 7 8 9 10 11 12 13 14 15 16 17 18 19 20 21 22 23 24 25 26 27 28 29 30 31 32 33 34 35 36 37 38 39 40 41 42 43 44 45 46 47 48 49 50 51 52 53 54 55 56 57 58 59 60 61 62 63 64 65 66 67 68 69 70 71 72 73 74 75 76 77 78 79 80 81 82 83 84 85 86 87 88 89 90 91 92 93 94 95 96 97 98 99 100 101 102 103 104 105 106 107 108 109 110 111 112 113 114 115 116 117 118 119 120 121 122 123 124 125 126 127 128 129 130 131 132 133 134 135 136 137 138 139 140 141 142 143 144 145 146 147 148 149 150 151 152 153 154 155 156 157 158 159 160 161 162 163 164 165 166 167 168 169 170 171 172 173 174 175 176 177 178 179 180 181 182 183 184 185 186 187 188 189 190 191 192 193 194 195 196 197 198 199 200 201 202 203 204 205 206 207 208 209 210 211 212 213 214 215 216 217 218 219 220 221 222 223 224 225 226 227 228 229 230 231 232 233 234 235 236 237 238 239 240 241 242 243 244 245 246 247 248 249 250 251 252 253 254 255 256 257 258 259 260 261 262 263 264 265 266 267 268 269 270 271 272 273 274 275 276 277 278 279 280 281 282 283 284 285 286 287 288 289 290 291 292 293 294 295 296 297 298 299 300 301 302 303 304 305 306 307 308 309 310 311 312 313 314 315 316 317 318 319 320 321 322 323 324 325 326 327 328 329 330 331 332 333 334 335 336 337 338 339 340 341 342 343 344 345 346 347 348 349 350 351 352 353 354 355 356 357 358 359 360 361 362 363 364 365 366 367 368 369 370 371 372 373 374 375 376 377 378 379 380 381 382 383 384 385 386 387 388 389 390 391 392 393 394 395 396 397 398 399 400 401 402 403 404 405 406 407 408 409 410 411 412 413 414 415 416 417 418 419 420 421 422 423 424 425 426 427 428 429 430 431 432 433 434 435 436 437 438 439 440 441 442 443 444 445 446 447 448 449 450 451 452 453 454 455 456 457 458 459 460 461 462 463 464 465 466 467 468 469 470 471 472 473 474 475 476 477 478 479 480 481 482 483 484 485 486 487 488 489 490 491 492 493 494 495 496 497 498 499 500 501 502 503 504 505 506 507 508 509 510 511 512 513 514 515 516 517 518 519 865 0
4 -5 -499 -502 -505 0
-4 505 0
-4 5 0
-4 502 0
-4 499 0
5 586 -6 86 -90 0
5 -586 -6 -86 -90 0
-5 90 0
-5 -586 86 0
-5 6 0
-5 586 -86 0
6 -576 577 -7 83 0
6 576 -577 7 -83 0
6 576 577 7 83 0
6 -576 -577 -7 -83 0
-6 -576 7 0
-6 576 -7 0
-6 577 -83 0
-6 -577 83 0
7 8 9 0
-7 -8 0
-7 -9 0
8 544 630 0
8 542 -544 0
8 -521 544 0
-8 -542 -544 0
-8 521 544 -630 0
9 10 81 0
-9 -10 0
-9 -81 0
10 -11 80 0
-10 11 0
-10 -80 0
11 12 -51 0
-11 -12 0
-11 51 0
12 -627 29 0
12 -596 13 29 0
-12 -29 0
-12 627 -13 0
-12 596 627 0
13 14 -22 -23 -24 0
-13 -14 0
-13 24 0
-13 23 0
-13 22 0
14 -554 -15 0
14 554 15 0
-14 554 -15 0
-14 -554 15 0
15 -605 -16 0
-15 605 0
-15 16 0
16 -606 -17 0
-16 606 0
-16 17 0
17 -607 -18 0
-17 607 0
-17 18 0
18 -609 -19 0
-18 609 0
-18 19 0
19 -610 -20 0
-19 610 0
-19 20 0
20 -617 -21 0
-20 617 0
-20 21 0
21 -548 -608 0
-21 548 0
-21 608 0
22 606 -17 0
22 -606 17 0
-22 -606 -17 0
-22 606 17 0
23 609 -19 0
23 -609 19 0
-23 -609 -19 0
-23 609 19 0
24 593 -25 -27 0
24 -25 -26 -27 0
-24 27 0
-24 25 0
-24 -593 26 0
25 610 -20 0
25 -610 20 0
-25 -610 -20 0
-25 610 20 0
26 -608 -617 0
26 -548 -617 0
-26 617 0
-26 548 608 0
27 -592 -605 -607 -28 0
-27 28 0
-27 592 0
-27 607 0
-27 605 0
28 617 -21 0
28 -617 21 0
-28 -617 -21 0
-28 617 21 0
29 -30 -37 40 -41 0
-29 41 0
-29 30 0
-29 37 0
-29 -40 0
30 -567 -31 0
-30 567 0
-30 31 0
31 614 -32 0
31 -614 32 0
-31 -614 -32 0
-31 614 32 0
32 -616 -33 0
-32 616 0
-32 33 0
33 -611 -34 0
-33 611 0
-33 34 0
34 -612 -35 0
-34 612 0
-34 35 0
35 -613 -36 0
-35 613 0
-35 36 0
36 -548 -604 0
-36 548 0
-36 604 0
37 -564 38 0
-37 564 0
-37 -38 0
38 -615 -39 0
-38 615 0
-38 39 0
39 -614 -32 0
-39 614 0
-39 32 0
40 615 39 0
-40 -615 0
-40 -39 0
41 -42 43 -47 -48 0
-41 48 0
-41 42 0
-41 47 0
-41 -43 0
42 616 -33 0
42 -616 33 0
-42 -616 -33 0
-42 616 33 0
43 44 46 0
43 588 44 0
43 613 44 0
-43 -44 0
-43 -588 -613 -46 0
44 -589 -45 0
-44 589 0
-44 45 0
45 613 -36 0
45 -613 36 0
-45 -613 -36 0
-45 613 36 0
46 548 -604 0
46 -548 604 0
-46 -548 -604 0
-46 548 604 0
47 612 -35 0
47 -612 35 0
-47 -612 -35 0
-47 612 35 0
48 -562 -571 -49 -50 0
-48 50 0
-48 562 0
-48 49 0
-48 571 0
49 -573 -575 -611 627 0
-49 611 0
-49 -627 0
-49 573 0
-49 575 0
50 -565 -569 0
-50 565 0
-50 569 0
51 549 550 -52 0
51 549 550 596 0
-51 -549 0
-51 -550 0
-51 -596 52 0
52 621 -53 -57 -70 0
52 -621 53 -57 -70 0
-52 70 0
-52 621 53 0
-52 57 0
-52 -621 -53 0
53 583 56 0
53 583 599 54 0
53 583 -599 -54 0
-53 -583 0
-53 -599 54 -56 0
-53 599 -54 -56 0
54 -600 -601 -55 0
-54 600 0
-54 601 0
-54 55 0
55 -548 -578 -602 0
-55 548 0
-55 578 0
-55 602 0
56 577 -579 0
-56 -577 0
-56 579 0
57 623 -58 -59 0
57 -623 58 -59 0
-57 59 0
-57 623 58 0
-57 -623 -58 0
58 585 56 0
58 585 601 55 0
58 585 -601 -55 0
-58 -585 0
-58 -601 55 -56 0
-58 601 -55 -56 0
59 -622 60 -63 66 0
59 622 -60 -63 66 0
-59 -66 0
-59 622 60 0
-59 63 0
-59 -622 -60 0
60 601 -62 0
60 -54 -62 0
60 61 -62 0
-60 62 0
-60 -601 54 -61 0
61 -55 -56 0
-61 55 0
-61 56 0
62 584 600 0
62 584 56 0
62 584 -54 0
-62 -584 0
-62 -600 54 -56 0
63 624 -64 0
63 -624 64 0
-63 -624 -64 0
-63 624 64 0
64 586 56 0
64 586 602 65 0
64 586 -602 -65 0
-64 -586 0
-64 -602 65 -56 0
-64 602 -65 -56 0
65 -548 -578 0
-65 548 0
-65 578 0
66 -625 -67 0
66 625 67 0
-66 625 -67 0
-66 -625 67 0
67 56 -68 0
67 -548 -578 -68 0
67 548 578 -68 0
-67 68 0
-67 548 -578 -56 0
-67 -548 578 -56 0
68 -579 587 0
68 587 -69 0
68 -577 587 0
-68 -587 0
-68 577 579 69 0
69 -547 -630 0
69 547 630 0
-69 547 -630 0
-69 -547 630 0
70 620 -13 -71 -73 0
70 -620 -13 71 -73 0
-70 73 0
-70 -620 -71 0
-70 13 0
-70 620 71 0
71 582 56 0
71 582 598 72 0
71 582 -598 -72 0
-71 -582 0
-71 -598 72 -56 0
-71 598 -72 -56 0
72 -599 -54 0
-72 599 0
-72 54 0
73 -618 619 74 -78 0
73 618 619 -74 -78 0
73 618 -619 -74 78 0
73 -618 -619 74 78 0
-73 -618 -74 0
-73 618 74 0
-73 619 78 0
-73 -619 -78 0
74 56 -76 0
74 552 -76 0
74 -75 -76 0
-74 76 0
-74 -552 -56 75 0
75 -597 -598 -72 0
-75 597 0
-75 598 0
-75 72 0
76 580 77 0
76 -552 580 0
76 580 597 0
-76 -580 0
-76 552 -597 -77 0
77 -598 -72 -56 0
-77 598 0
-77 72 0
-77 56 0
78 581 -597 79 0
78 581 597 77 0
-78 -581 0
-78 -597 -79 0
-78 597 -77 0
79 72 -56 0
79 598 -56 0
-79 56 0
-79 -598 -72 0
80 626 52 0
80 551 626 0
-80 -626 0
-80 -551 -52 0
81 51 -82 0
-81 -51 0
-81 82 0
82 -12 -80 0
-82 12 0
-82 80 0
83 9 -84 0
-83 -9 0
-83 84 0
84 -8 -85 0
84 8 85 0
-84 8 -85 0
-84 -8 85 0
85 548 631 0
85 -548 630 0
85 -527 548 0
-85 -548 -630 0
-85 527 548 -631 0
86 -83 87 0
-86 83 0
-86 -87 0
87 88 89 0
87 602 88 0
-87 -88 0
-87 -602 -89 0
88 -548 64 0
-88 548 0
-88 -64 0
89 528 548 0
-89 -528 0
-89 -548 0
90 -91 -96 -104 -107 0
-90 107 0
-90 91 0
-90 104 0
-90 96 0
91 589 92 93 -94 0
91 -589 -92 93 -94 0
-91 -93 0
-91 589 -92 0
-91 94 0
-91 -589 92 0
92 8 -9 0
-92 -8 0
-92 9 0
93 574 -575 0
93 -574 7 0
-93 -574 -7 0
-93 574 575 0
94 588 95 0
94 -573 -7 95 0
-94 -95 0
-94 -588 7 0
-94 573 -588 0
95 563 -565 0
95 -563 7 0
-95 -563 -7 0
-95 563 565 0
96 -579 9 97 -99 0
96 579 -9 97 -99 0
-96 99 0
-96 579 9 0
-96 -97 0
-96 -579 -9 0
97 569 -7 0
97 -7 98 0
97 565 -7 0
-97 7 0
-97 -565 -569 -98 0
98 -555 -559 -588 -591 0
-98 591 0
-98 555 0
-98 588 0
-98 559 0
99 -550 594 -100 103 0
99 550 -594 100 -103 0
99 550 594 100 103 0
99 -550 -594 -100 -103 0
-99 -550 100 0
-99 550 -100 0
-99 594 -103 0
-99 -594 103 0
100 101 -102 0
-100 -101 0
-100 102 0
101 -540 -543 0
101 520 543 -629 0
-101 543 629 0
-101 540 -543 0
-101 -520 543 0
102 12 51 -80 0
-102 80 0
-102 -51 0
-102 -12 0
103 -81 -84 0
-103 81 0
-103 84 0
104 592 -9 105 0
104 -593 9 105 0
-104 -105 0
-104 -592 -9 0
-104 593 9 0
105 595 -106 0
105 -595 106 0
-105 -595 -106 0
-105 595 106 0
106 -51 -82 0
-106 51 0
-106 82 0
107 561 81 -108 -109 0
107 -561 -81 -108 -109 0
-107 109 0
-107 -561 81 0
-107 108 0
-107 561 -81 0
108 -596 603 -82 0
108 596 -10 82 0
108 596 603 82 0
108 -596 -10 -82 0
-108 596 -82 0
-108 -596 82 0
-108 -603 10 0
109 -603 -110 498 0
109 10 -110 498 0
-109 110 0
-109 -498 0
-109 603 -10 0
110 650 -111 493 -495 0
110 -650 -111 493 495 0
-110 -493 0
-110 -650 -495 0
-110 111 0
-110 650 495 0
111 -112 460 468 -471 0
-111 471 0
-111 -468 0
-111 112 0
-111 -460 0
112 551 12 -113 -442 0
112 -551 -12 -113 -442 0
-112 442 0
-112 -551 12 0
-112 113 0
-112 551 -12 0
113 -114 -203 -214 -221 0
-113 221 0
-113 114 0
-113 214 0
-113 203 0
114 -115 -133 -142 -147 0
-114 147 0
-114 115 0
-114 142 0
-114 133 0
115 -696 -116 122 0
115 696 116 122 0
115 -696 -89 122 0
-115 -122 0
-115 696 -116 0
-115 -696 89 116 0
116 -548 117 0
-116 548 0
-116 -117 0
117 696 -119 0
117 -696 119 -120 0
117 -118 0
117 696 120 0
-117 -696 118 -119 0
-117 -696 118 120 0
-117 696 118 119 -120 0
118 -650 -652 0
118 651 652 0
118 650 -651 0
-118 -650 -651 652 0
-118 650 651 -652 0
119 -693 -705 0
119 693 705 0
-119 693 -705 0
-119 -693 705 0
120 -697 -698 -699 -121 0
-120 121 0
-120 697 0
-120 699 0
-120 698 0
121 -548 -700 -701 0
-121 548 0
-121 700 0
-121 701 0
122 -678 123 132 0
-122 678 0
-122 -132 0
-122 -123 0
123 -124 -126 0
-123 124 0
-123 126 0
124 -548 -125 0
-124 548 0
-124 125 0
125 705 118 0
-125 -705 0
-125 -118 0
126 678 -127 0
126 -678 127 0
-126 -678 -127 0
-126 678 127 0
127 -679 -128 0
-127 679 0
-127 128 0
128 -680 -129 0
-128 680 0
-128 129 0
129 -681 -130 0
-129 681 0
-129 130 0
130 -682 -683 -131 0
-130 682 0
-130 683 0
-130 131 0
131 -548 -684 0
-131 548 0
-131 684 0
132 526 548 0
-132 -526 0
-132 -548 0
133 -697 -134 -137 0
133 -89 -134 137 0
133 697 -134 137 0
-133 134 0
-133 697 -137 0
-133 -697 89 137 0
134 -606 123 0
134 -678 135 0
134 -606 -678 0
134 123 135 0
-134 606 -135 0
-134 678 -123 0
135 -22 -136 0
-135 22 0
-135 136 0
136 -548 -592 0
-136 548 0
-136 592 0
137 -548 -138 0
-137 548 0
-137 138 0
138 118 139 0
-138 -118 0
-138 -139 0
139 -697 -140 0
139 697 140 0
-139 697 -140 0
-139 -697 140 0
140 -698 -699 -141 0
-140 698 0
-140 699 0
-140 141 0
141 -548 -700 -701 119 0
-141 701 0
-141 -119 0
-141 548 0
-141 700 0
142 598 143 0
142 552 145 0
142 143 145 0
142 552 598 0
-142 -552 -143 0
-142 -598 -145 0
143 552 144 0
143 89 144 0
-143 -144 0
-143 -552 -89 0
144 -548 74 0
-144 548 0
-144 -74 0
145 598 146 0
145 89 146 0
-145 -146 0
-145 -598 -89 0
146 -548 71 0
-146 548 0
-146 -71 0
147 -148 -162 -178 -195 0
-147 195 0
-147 148 0
-147 178 0
-147 162 0
148 601 -149 161 0
148 -149 159 161 0
-148 149 0
-148 -161 0
-148 -601 -159 0
149 -699 150 -156 0
149 699 150 156 0
149 -699 -89 150 0
-149 -150 0
-149 699 -156 0
-149 -699 89 156 0
150 644 152 0
150 -644 151 -152 0
-150 -644 -151 0
-150 644 -152 0
-150 -644 152 0
151 525 596 0
-151 -525 0
-151 -596 0
152 596 154 0
152 153 154 0
152 572 154 0
-152 -154 0
-152 -572 -596 -153 0
153 611 -34 0
153 -611 34 0
-153 -611 -34 0
-153 611 34 0
154 558 -23 -155 0
-154 155 0
-154 23 0
-154 -558 0
155 -561 -596 0
-155 561 0
-155 596 0
156 -548 -157 0
-156 548 0
-156 157 0
157 118 -158 0
-157 -118 0
-157 158 0
158 699 -141 0
158 -699 141 0
-158 -699 -141 0
-158 699 141 0
159 601 160 0
159 89 160 0
-159 -160 0
-159 -601 -89 0
160 -548 58 0
-160 548 0
-160 -58 0
161 -606 132 135 0
-161 606 0
-161 -135 0
-161 -132 0
162 163 -164 -171 0
162 136 -164 -171 0
-162 171 0
-162 164 0
-162 -163 -136 0
163 554 -15 0
-163 -554 0
-163 15 0
164 165 166 -170 0
164 -690 165 -166 0
164 690 165 166 0
-164 -165 0
-164 690 -166 0
-164 -690 166 170 0
165 -124 -128 0
165 -679 124 132 0
-165 -124 128 0
-165 679 124 0
-165 124 -132 0
166 -548 -167 0
-166 548 0
-166 167 0
167 690 -168 -169 0
167 -690 -168 169 0
-167 168 0
-167 -690 -169 0
-167 690 169 0
168 -705 118 0
-168 705 0
-168 -118 0
169 -548 -691 -692 0
-169 548 0
-169 691 0
-169 692 0
170 529 548 0
-170 -529 0
-170 -548 0
171 -701 172 0
171 -599 173 0
171 -599 -701 0
171 172 173 0
-171 701 -173 0
-171 599 -172 0
172 -548 53 0
-172 548 0
-172 -53 0
173 -548 -174 0
-173 548 0
-173 174 0
174 175 -176 0
174 548 -701 -176 0
174 -548 701 -176 0
-174 176 0
-174 548 701 -175 0
-174 -548 -701 -175 0
175 118 119 0
-175 -118 0
-175 -119 0
176 118 119 0
176 -118 177 0
176 -701 118 0
-176 -118 -177 0
-176 701 118 -119 0
177 -547 -705 0
177 547 705 0
-177 547 -705 0
-177 -547 705 0
178 -688 -179 189 0
178 -179 189 192 0
-178 179 0
-178 -189 0
-178 688 -192 0
179 -89 180 0
179 -173 180 0
179 701 180 0
-179 -180 0
-179 -701 89 173 0
180 -665 181 188 0
-180 665 0
-180 -188 0
-180 -181 0
181 -182 -186 0
181 -182 -183 -185 0
-181 182 0
-181 183 186 0
-181 185 186 0
182 -651 652 0
-182 651 0
-182 -652 0
183 705 -184 0
-183 -705 0
-183 184 0
184 -650 -182 0
-184 650 0
-184 182 0
185 681 -130 0
185 -681 130 0
-185 -681 -130 0
-185 681 130 0
186 689 -168 -187 0
186 -689 -168 187 0
-186 168 0
-186 -689 -187 0
-186 689 187 0
187 -690 -169 0
-187 690 0
-187 169 0
188 525 182 0
-188 -525 0
-188 -182 0
189 666 -190 0
189 -666 188 190 0
-189 -188 190 0
-189 -666 -190 0
-189 666 190 0
190 -182 -167 0
190 -182 -183 -191 0
-190 182 0
-190 167 191 0
-190 167 183 0
191 -682 683 0
191 682 -683 -131 0
191 -682 131 0
-191 682 131 0
-191 682 683 0
-191 -682 -683 -131 0
192 -548 -193 0
-192 548 0
-192 193 0
193 688 -168 -194 0
193 -688 -168 194 0
-193 168 0
-193 -688 -194 0
-193 688 194 0
194 -689 -187 0
-194 689 0
-194 187 0
195 600 -196 198 0
195 -196 198 201 0
-195 196 0
-195 -198 0
-195 -600 -201 0
196 -170 197 0
196 -192 197 0
196 688 197 0
-196 -197 0
-196 -688 170 192 0
197 665 -181 0
-197 -665 0
-197 181 0
198 636 -199 0
198 -636 199 200 0
-198 -636 -199 0
-198 199 -200 0
-198 636 199 0
199 -596 60 0
-199 596 0
-199 -60 0
200 524 596 0
-200 -524 0
-200 -596 0
201 600 202 0
201 89 202 0
-201 -202 0
-201 -600 -89 0
202 -548 60 0
-202 548 0
-202 -60 0
203 204 206 -207 0
203 597 206 -207 0
-203 207 0
-203 -206 0
-203 -597 -204 0
204 597 205 0
204 89 205 0
-204 -205 0
-204 -597 -89 0
205 -548 78 0
-205 548 0
-205 -78 0
206 -554 132 136 0
206 -554 -15 132 0
-206 554 0
-206 -132 0
-206 15 -136 0
207 -188 212 0
207 -208 212 0
207 663 212 0
-207 -212 0
-207 -663 188 208 0
208 -182 -209 0
208 -182 -211 0
-208 182 0
-208 209 211 0
209 687 -168 -210 0
209 -687 -168 210 0
-209 168 0
-209 -687 -210 0
-209 687 210 0
210 -688 -194 0
-210 688 0
-210 194 0
211 679 -128 -183 0
211 -679 128 -183 0
-211 183 0
-211 679 128 0
-211 -679 -128 0
212 564 -38 -213 0
212 -564 170 213 0
212 -38 170 -213 0
-212 38 -213 0
-212 564 213 0
-212 -564 -170 0
213 -548 -562 0
-213 548 0
-213 562 0
214 -686 -215 -218 0
214 -170 -215 218 0
214 686 -215 218 0
-214 215 0
-214 686 -218 0
-214 -686 170 218 0
215 -687 216 -217 0
215 687 216 217 0
215 -687 -170 216 0
-215 -216 0
-215 687 -217 0
-215 -687 170 217 0
216 663 -208 0
-216 -663 0
-216 208 0
217 -548 -209 0
-217 548 0
-217 209 0
218 -548 -219 0
-218 548 0
-218 219 0
219 686 -168 -220 0
219 -686 -168 220 0
-219 168 0
-219 -686 -220 0
-219 686 220 0
220 -687 -210 0
-220 687 0
-220 210 0
221 -222 -245 -251 -258 0
-221 258 0
-221 222 0
-221 251 0
-221 245 0
222 -223 -228 -235 -243 0
-222 243 0
-222 223 0
-222 235 0
-222 228 0
223 -188 224 0
223 224 -226 0
223 664 224 0
-223 -224 0
-223 -664 188 226 0
224 -633 200 225 0
-224 633 0
-224 -225 0
-224 -200 0
225 -596 78 0
-225 596 0
-225 -78 0
226 -182 -193 0
226 -182 -183 -227 0
-226 182 0
-226 193 227 0
-226 183 193 0
227 680 -129 0
227 -680 129 0
-227 -680 -129 0
-227 680 129 0
228 229 233 -234 0
228 -660 229 -233 0
228 660 229 233 0
-228 -229 0
-228 660 -233 0
-228 -660 233 234 0
229 643 230 0
229 -643 151 -230 0
-229 -643 -151 0
-229 643 -230 0
-229 -643 230 0
230 596 231 0
230 42 231 0
230 570 231 0
-230 -231 0
-230 -570 -596 -42 0
231 557 -155 -232 0
-231 232 0
-231 155 0
-231 -557 0
232 607 -18 0
232 -607 18 0
-232 -607 -18 0
-232 607 18 0
233 -182 -174 0
-233 182 0
-233 174 0
234 524 182 0
-234 -524 0
-234 -182 0
235 -89 236 0
235 236 -241 0
235 695 236 0
-235 -236 0
-235 -695 89 241 0
236 653 -237 0
-236 -653 0
-236 237 0
237 -182 -238 0
-237 182 0
-237 238 0
238 -694 118 -119 0
238 -694 118 239 0
238 694 118 119 -239 0
-238 694 -119 0
-238 -694 119 -239 0
-238 -118 0
-238 694 239 0
239 -695 -240 0
-239 695 0
-239 240 0
240 -696 -120 0
-240 696 0
-240 120 0
241 -548 242 0
-241 548 0
-241 -242 0
242 695 -119 0
242 -695 119 -240 0
242 -118 0
242 695 240 0
-242 -695 118 -119 0
-242 -695 118 240 0
-242 695 118 119 -240 0
243 -89 244 0
243 -694 -244 0
243 694 244 0
-243 694 -244 0
-243 -694 89 244 0
244 -548 -238 0
-244 548 0
-244 238 0
245 -632 -246 248 0
245 -246 248 250 0
-245 246 0
-245 -248 0
-245 632 -250 0
246 -664 247 0
246 226 247 0
-246 -247 0
-246 664 -226 0
247 -605 132 136 0
247 -605 -16 132 0
-247 605 0
-247 -132 0
-247 16 -136 0
248 -677 124 132 0
248 -677 -249 132 0
-248 677 0
-248 -132 0
-248 -124 249 0
249 -678 -127 0
-249 678 0
-249 127 0
250 -596 74 0
-250 596 0
-250 -74 0
251 252 253 -254 0
251 -634 252 -254 0
-251 254 0
-251 -252 0
-251 634 -253 0
252 605 -16 -136 0
-252 136 0
-252 16 0
-252 -605 0
253 -596 71 0
-253 596 0
-253 -71 0
254 -642 255 0
254 599 -256 0
254 599 -642 0
254 255 -256 0
-254 642 256 0
-254 -599 -255 0
255 599 172 0
255 89 172 0
-255 -172 0
-255 -599 -89 0
256 596 257 0
256 31 257 0
256 568 257 0
-256 -257 0
-256 -568 -596 -31 0
257 556 -22 -155 0
-257 155 0
-257 22 0
-257 -556 0
258 -259 -296 -424 -430 0
-258 430 0
-258 259 0
-258 424 0
-258 296 0
259 -260 -272 -284 -290 0
-259 290 0
-259 260 0
-259 284 0
-259 272 0
260 202 261 -263 0
260 -600 261 -263 0
-260 263 0
-260 -261 0
-260 600 -202 0
261 -616 170 262 0
-261 616 0
-261 -262 0
-261 -170 0
262 -548 -569 -42 0
-262 548 0
-262 569 0
-262 42 0
263 -188 264 0
263 264 -267 0
263 667 264 0
-263 -264 0
-263 -667 188 267 0
264 -645 151 265 0
-264 645 0
-264 -265 0
-264 -151 0
265 -596 -266 0
265 -574 -596 -47 0
-265 596 0
-265 47 266 0
-265 574 266 0
266 559 -561 -25 0
-266 25 0
-266 561 0
-266 -559 0
267 -182 -268 0
267 -182 -271 0
-267 182 0
-267 268 271 0
268 -168 -269 0
-268 168 0
-268 269 0
269 691 -270 0
269 -691 270 0
-269 -691 -270 0
-269 691 270 0
270 -548 -692 0
-270 548 0
-270 692 0
271 683 -131 -183 0
271 -683 131 -183 0
-271 183 0
-271 683 131 0
-271 -683 -131 0
272 273 277 -279 0
272 -700 277 -279 0
-272 279 0
-272 -277 0
-272 700 -273 0
273 -548 -274 0
-273 548 0
-273 274 0
274 118 -275 0
-274 -118 0
-274 275 0
275 -700 -119 0
275 -700 276 0
275 700 119 -276 0
-275 700 -119 0
-275 700 276 0
-275 -700 119 -276 0
276 -548 -701 0
-276 548 0
-276 701 0
277 -637 200 278 0
-277 637 0
-277 -278 0
-277 -200 0
278 -596 58 0
-278 596 0
-278 -58 0
279 -89 280 0
279 280 -282 0
279 698 280 0
-279 -280 0
-279 -698 89 282 0
280 658 -281 0
280 -658 234 281 0
-280 -234 281 0
-280 -658 -281 0
-280 658 281 0
281 -184 -158 0
-281 184 0
-281 158 0
282 -548 -283 0
-282 548 0
-282 283 0
283 -698 699 118 0
283 -698 118 141 0
283 698 -699 118 -141 0
-283 698 699 0
-283 698 141 0
-283 -118 0
-283 -698 -699 -141 0
284 87 -285 288 0
284 602 -285 288 0
-284 285 0
-284 -288 0
-284 -602 -87 0
285 578 262 0
285 -616 286 0
285 578 -616 0
285 262 286 0
-285 -578 -286 0
-285 616 -262 0
286 578 287 0
286 89 287 0
-286 -287 0
-286 -578 -89 0
287 -548 67 0
-287 548 0
-287 -67 0
288 -657 234 289 0
-288 657 0
-288 -289 0
-288 -234 0
289 -182 -283 0
-289 182 0
-289 283 0
290 -637 -291 294 0
290 278 -291 294 0
-290 291 0
-290 -294 0
-290 637 -278 0
291 -639 -292 293 0
291 639 292 293 0
291 -639 -200 293 0
-291 -293 0
-291 639 -292 0
-291 -639 200 292 0
292 -596 67 0
-292 596 0
-292 -67 0
293 -607 132 136 0
293 -607 -18 132 0
-293 607 0
-293 -132 0
-293 18 -136 0
294 659 -295 0
294 -659 234 295 0
-294 -234 295 0
-294 -659 -295 0
-294 659 295 0
295 -184 -275 0
-295 184 0
-295 275 0
296 -297 -320 -398 -404 0
-296 404 0
-296 297 0
-296 398 0
-296 320 0
297 -298 -310 -315 -317 0
-297 317 0
-297 298 0
-297 315 0
-297 310 0
298 -299 -301 -305 -307 0
-298 307 0
-298 299 0
-298 305 0
-298 301 0
299 -638 88 0
299 -602 300 0
299 -602 -638 0
299 88 300 0
-299 638 -300 0
-299 602 -88 0
300 -596 64 0
-300 596 0
-300 -64 0
301 -680 302 0
301 -647 304 0
301 -647 -680 0
301 302 304 0
-301 680 -304 0
-301 647 -302 0
302 -596 -303 0
302 -590 -596 -46 0
-302 596 0
-302 46 303 0
-302 590 303 0
303 561 591 0
303 548 591 -608 0
303 -548 591 608 0
-303 -591 0
-303 -548 -561 -608 0
-303 548 -561 608 0
304 -124 -227 0
-304 124 0
-304 227 0
305 -170 306 0
305 -611 -306 0
305 611 306 0
-305 611 -306 0
-305 -611 170 306 0
306 -548 -571 -153 0
-306 548 0
-306 571 0
-306 153 0
307 -200 308 0
307 -300 308 0
307 638 308 0
-307 -308 0
-307 -638 200 300 0
308 648 -309 0
308 -530 -648 309 0
308 -548 -648 309 0
-308 648 309 0
-308 -648 -309 0
-308 530 548 309 0
309 -548 -594 0
309 -548 -595 -69 0
-309 548 0
-309 594 69 0
-309 594 595 0
310 -691 -170 -312 0
310 691 311 -312 0
310 -691 -311 -312 0
-310 312 0
-310 691 -311 0
-310 -691 170 311 0
311 -548 -268 0
-311 548 0
-311 268 0
312 -132 313 0
312 -304 313 0
312 680 313 0
-312 -313 0
-312 -680 132 304 0
313 -681 132 314 0
-313 681 0
-313 -314 0
-313 -132 0
314 -124 -185 0
-314 124 0
-314 185 0
315 -151 316 0
315 -302 316 0
315 647 316 0
-315 -316 0
-315 -647 151 302 0
316 -683 -684 132 0
316 -683 124 132 0
-316 683 0
-316 -132 0
-316 684 -124 0
317 -132 318 0
317 318 -319 0
317 609 318 0
-317 -318 0
-317 -609 132 319 0
318 610 -20 -136 0
318 -610 132 136 0
318 -20 132 -136 0
-318 20 -136 0
-318 610 136 0
-318 -610 -132 0
319 -23 -136 0
-319 23 0
-319 136 0
320 -645 -321 -390 0
320 265 -321 -390 0
-320 390 0
-320 321 0
-320 645 -265 0
321 -322 -334 -369 -376 0
-321 376 0
-321 322 0
-321 369 0
-321 334 0
322 -612 -323 -333 0
322 -170 -323 333 0
322 612 -323 333 0
-322 323 0
-322 612 -333 0
-322 -612 170 333 0
323 684 -325 0
323 -132 -325 0
323 -324 -325 0
-323 325 0
-323 -684 132 324 0
324 -548 705 -118 0
324 -548 684 705 0
-324 548 0
-324 -705 0
-324 -684 118 0
325 326 327 -330 0
325 -604 327 -330 0
-325 330 0
-325 -327 0
-325 604 -326 0
326 -548 -589 0
326 -548 -588 604 0
-326 548 0
-326 589 -604 0
-326 588 589 0
327 628 -328 0
327 -628 -329 0
-327 -628 329 0
-327 628 328 0
328 -541 -545 0
-328 541 0
-328 545 0
329 -522 545 0
329 541 -545 0
-329 -541 -545 0
-329 522 545 0
330 -170 331 0
330 -326 331 0
330 604 331 0
-330 -331 0
-330 -604 170 326 0
331 649 -332 0
331 -531 -649 332 0
331 -548 -649 332 0
-331 649 332 0
-331 -649 -332 0
-331 531 548 332 0
332 -547 -548 0
332 -548 -603 0
-332 548 0
-332 547 603 0
333 -548 -573 -47 0
-333 548 0
-333 573 0
-333 47 0
334 -335 -344 -355 -362 0
-334 362 0
-334 335 0
-334 355 0
-334 344 0
335 621 -336 342 0
335 -336 342 343 0
-335 336 0
-335 -342 0
-335 -621 -343 0
336 -692 -337 -341 0
336 -337 340 -341 0
-336 341 0
-336 337 0
-336 692 -340 0
337 573 338 -339 0
337 -572 338 -339 0
-337 339 0
-337 -338 0
-337 572 -573 0
338 558 -559 0
-338 -558 0
-338 559 0
339 -568 591 0
339 569 -590 0
339 569 591 0
339 -568 -590 0
-339 568 -569 0
-339 590 -591 0
340 -548 -705 0
-340 548 0
-340 705 0
341 549 -553 627 0
341 549 555 627 0
-341 -549 0
-341 -627 0
-341 553 -555 0
342 -523 546 -671 0
342 534 -546 -671 0
-342 671 0
-342 -534 -546 0
-342 523 546 0
343 -523 546 0
343 535 -546 0
-343 -535 -546 0
-343 523 546 0
344 -345 -347 -350 -353 0
-344 353 0
-344 345 0
-344 350 0
-344 347 0
345 608 -671 0
345 136 346 0
345 -671 136 0
345 608 346 0
-345 671 -346 0
-345 -608 -136 0
346 -534 -546 0
-346 534 0
-346 546 0
347 -625 348 0
347 -704 349 0
347 -625 -704 0
347 348 349 0
-347 625 -349 0
-347 704 -348 0
348 -540 -543 0
-348 540 0
-348 543 0
349 -539 -546 0
-349 539 0
-349 546 0
350 -675 351 0
350 -684 352 0
350 -675 -684 0
350 351 352 0
-350 675 -352 0
-350 684 -351 0
351 -548 705 0
-351 548 0
-351 -705 0
352 -538 -546 0
-352 538 0
-352 546 0
353 548 -624 0
353 354 352 0
353 -624 354 0
353 548 352 0
-353 624 -352 0
-353 -548 -354 0
354 693 -705 0
-354 -693 0
-354 705 0
355 356 357 -360 0
355 624 357 -360 0
-355 360 0
-355 -357 0
-355 -624 -356 0
356 -523 546 0
356 538 -546 0
-356 -538 -546 0
-356 523 546 0
357 -630 358 359 0
357 -705 358 359 0
-357 -359 0
-357 -358 0
-357 630 705 0
358 -542 -544 0
-358 542 0
-358 544 0
359 521 544 0
-359 -521 0
-359 -544 0
360 672 361 0
360 620 343 0
360 361 343 0
360 620 672 0
-360 -620 -361 0
-360 -672 -343 0
361 -523 546 0
361 534 -546 0
-361 -534 -546 0
-361 523 546 0
362 356 363 -366 0
362 675 363 -366 0
-362 366 0
-362 -363 0
-362 -675 -356 0
363 -618 364 365 0
363 -669 364 365 0
-363 -365 0
-363 -364 0
-363 618 669 0
364 523 546 0
-364 -523 0
-364 -546 0
365 -532 -546 0
-365 532 0
-365 546 0
366 670 367 0
366 622 368 0
366 367 368 0
366 622 670 0
-366 -622 -367 0
-366 -670 -368 0
367 -523 546 0
367 536 -546 0
-367 -536 -546 0
-367 523 546 0
368 -523 546 0
368 533 -546 0
-368 -533 -546 0
-368 523 546 0
369 370 371 -372 0
369 8 371 -372 0
-369 372 0
-369 -371 0
-369 -8 -370 0
370 592 -593 0
-370 -592 0
-370 593 0
371 -631 -85 0
-371 631 0
-371 85 0
372 629 348 374 0
372 -629 373 374 0
-372 -374 0
-372 629 -348 0
-372 -629 -373 0
373 -520 543 0
373 540 -543 0
-373 -540 -543 0
-373 520 543 0
374 -608 -375 0
374 -548 370 -375 0
-374 375 0
-374 608 -370 0
-374 548 608 0
375 -593 132 0
375 21 132 0
-375 -132 0
-375 593 -21 0
376 -377 -381 -383 -385 0
-376 385 0
-376 377 0
-376 383 0
-376 381 0
377 36 -378 380 0
377 575 -378 380 0
-377 378 0
-377 -380 0
-377 -575 -36 0
378 358 379 0
378 -630 -705 379 0
-378 -379 0
-378 705 -358 0
-378 630 -358 0
379 -533 -546 670 0
379 -533 -546 619 0
-379 533 0
-379 546 0
-379 -619 -670 0
380 -537 -546 674 0
380 -537 -546 623 0
-380 537 0
-380 546 0
-380 -623 -674 0
381 546 382 0
381 -622 382 0
381 536 382 0
-381 -382 0
-381 -536 -546 622 0
382 -535 -546 672 0
382 -535 -546 621 0
-382 535 0
-382 546 0
-382 -621 -672 0
383 546 384 0
383 -676 384 0
383 539 384 0
-383 -384 0
-383 -539 -546 676 0
384 -532 -546 669 0
384 -532 -546 618 0
-384 532 0
-384 546 0
-384 -618 -669 0
385 -8 -386 -389 0
385 -370 -386 -389 0
-385 389 0
-385 386 0
-385 8 370 0
386 -673 387 0
386 -631 388 0
386 -631 -673 0
386 387 388 0
-386 673 -388 0
-386 631 -387 0
387 -548 -630 0
-387 548 0
-387 630 0
388 -536 -546 0
-388 536 0
-388 546 0
389 -620 328 0
389 -706 346 0
389 -620 -706 0
389 328 346 0
-389 620 -346 0
-389 706 -328 0
390 -702 -393 397 0
390 391 -393 397 0
-390 393 0
-390 -397 0
-390 702 -391 0
391 -650 -119 -392 0
391 650 -177 -392 0
-391 392 0
-391 -650 119 0
-391 650 177 0
392 -548 -182 0
-392 548 0
-392 182 0
393 -646 394 0
393 394 -395 0
-393 -394 0
-393 646 395 0
394 -530 -702 391 0
394 -548 -702 391 0
-394 702 0
-394 -391 0
-394 530 548 0
395 596 396 0
395 45 396 0
395 576 396 0
-395 -396 0
-395 -576 -596 -45 0
396 560 -28 -155 0
-396 155 0
-396 28 0
-396 -560 0
397 -646 151 -395 0
-397 646 0
-397 -151 0
-397 395 0
398 287 399 -403 0
398 -578 399 -403 0
-398 403 0
-398 -399 0
-398 578 -287 0
399 668 -400 0
-399 -668 0
-399 400 0
400 168 -401 0
400 548 -692 -401 0
400 -548 692 -401 0
-400 401 0
-400 548 692 -168 0
-400 -548 -692 -168 0
401 -182 -402 0
401 -182 183 0
-401 182 0
-401 -183 402 0
402 548 -684 0
402 -548 684 0
-402 -548 -684 0
-402 548 684 0
403 -609 314 0
403 -681 319 0
403 -609 -681 0
403 314 319 0
-403 609 -319 0
-403 681 -314 0
404 -405 -410 -418 -422 0
-404 422 0
-404 405 0
-404 418 0
-404 410 0
405 131 -407 0
405 125 -407 0
405 -406 -407 0
-405 407 0
-405 -125 -131 406 0
406 -682 -683 0
-406 682 0
-406 683 0
407 703 408 0
407 -703 -408 0
407 531 548 408 0
-407 703 -408 0
-407 -531 -703 408 0
-407 -548 -703 408 0
408 -547 -548 0
408 -548 -652 -409 0
-408 548 0
-408 547 652 0
-408 547 409 0
409 650 651 0
-409 -650 0
-409 -651 0
410 -411 -412 -414 -416 0
-410 416 0
-410 411 0
-410 414 0
-410 412 0
411 367 368 0
411 619 673 0
411 673 368 0
411 619 367 0
-411 -673 -367 0
-411 -619 -368 0
412 -132 413 0
412 -136 413 0
412 617 413 0
-412 -413 0
-412 -617 132 136 0
413 -527 548 -693 0
413 -548 -693 705 0
-413 693 0
-413 -548 -705 0
-413 527 548 0
414 373 415 0
414 676 704 0
414 704 415 0
414 676 373 0
-414 -704 -373 0
-414 -676 -415 0
415 -523 546 0
415 539 -546 0
-415 -539 -546 0
-415 523 546 0
416 415 417 0
416 623 625 0
416 625 417 0
416 623 415 0
-416 -625 -415 0
-416 -623 -417 0
417 -523 546 0
417 537 -546 0
-417 -537 -546 0
-417 523 546 0
418 417 419 -420 0
418 674 419 -420 0
-418 420 0
-418 -419 0
-418 -674 -417 0
419 -692 118 170 0
419 -692 170 340 0
-419 692 0
-419 -170 0
-419 -118 -340 0
420 706 421 0
420 329 421 0
-420 -421 0
-420 -706 -329 0
421 -529 548 -613 0
421 -548 575 -613 0
-421 613 0
-421 -548 -575 0
-421 529 548 0
422 -188 423 0
422 -400 423 0
422 668 423 0
-422 -423 0
-422 -668 188 400 0
423 -682 124 132 0
423 -682 132 191 0
-423 682 0
-423 -132 0
-423 -124 -191 0
424 -615 -170 -427 0
424 615 425 -427 0
424 -615 -425 -427 0
-424 427 0
-424 615 -425 0
-424 -615 170 425 0
425 -548 -565 -426 0
-425 548 0
-425 565 0
-425 426 0
426 615 -39 0
426 -615 39 0
-426 -615 -39 0
-426 615 39 0
427 -655 428 -429 0
427 655 428 429 0
427 -655 -234 428 0
-427 -428 0
-427 655 -429 0
-427 -655 234 429 0
428 -653 234 237 0
-428 653 0
-428 -237 0
-428 -234 0
429 -182 117 0
-429 182 0
-429 -117 0
430 -695 -431 -439 0
430 241 -431 -439 0
-430 439 0
-430 431 0
-430 695 -241 0
431 -432 -434 -436 -437 0
-431 437 0
-431 432 0
-431 436 0
-431 434 0
432 -656 267 0
432 -667 433 0
432 -656 -667 0
432 267 433 0
-432 656 -433 0
-432 667 -267 0
433 -184 139 0
-433 184 0
-433 -139 0
434 18 435 0
434 -607 435 0
434 136 435 0
-434 -435 0
-434 607 -18 -136 0
435 -656 234 433 0
-435 656 0
-435 -433 0
-435 -234 0
436 -657 282 0
436 -698 289 0
436 -657 -698 0
436 282 289 0
-436 657 -289 0
-436 698 -282 0
437 -601 438 0
437 124 160 0
437 160 438 0
437 -601 124 0
-437 -124 -438 0
-437 601 -160 0
438 677 -249 0
-438 -677 0
-438 249 0
439 -689 -440 441 0
439 689 440 441 0
439 -689 -170 441 0
-439 -441 0
-439 689 -440 0
-439 -689 170 440 0
440 -548 -186 0
-440 548 0
-440 186 0
441 -700 89 273 0
-441 700 0
-441 -273 0
-441 -89 0
442 -640 -151 -446 0
442 640 443 -446 0
442 -640 -443 -446 0
-442 446 0
-442 640 -443 0
-442 -640 151 443 0
443 -596 -444 0
443 -596 14 -445 0
-443 596 0
-443 -14 444 0
-443 444 445 0
444 -563 564 -38 0
444 -563 -564 38 0
-444 563 0
-444 -564 -38 0
-444 564 38 0
445 553 -561 0
-445 -553 0
-445 561 0
446 -685 447 -459 0
446 685 447 459 0
446 -685 -170 447 0
-446 -447 0
-446 685 -459 0
-446 -685 170 459 0
447 448 449 0
447 448 -453 -455 0
-447 -448 0
-447 -449 453 0
-447 -449 455 0
448 651 704 0
448 651 -652 0
448 650 651 0
-448 -651 0
-448 -650 652 -704 0
449 -182 450 0
-449 182 0
-449 -450 0
450 -126 -227 -451 0
-450 126 0
-450 227 0
-450 451 0
451 -125 -185 -402 -452 0
-451 452 0
-451 125 0
-451 402 0
-451 185 0
452 -677 -679 -682 -683 0
-452 683 0
-452 677 0
-452 682 0
-452 679 0
453 685 -168 -454 0
453 -685 -168 454 0
-453 168 0
-453 -685 -454 0
-453 685 454 0
454 -686 -220 0
-454 686 0
-454 220 0
455 -193 -209 -219 -456 0
-455 456 0
-455 193 0
-455 219 0
-455 209 0
456 -118 -186 -458 0
456 -186 -457 -458 0
-456 458 0
-456 186 0
-456 118 457 0
457 548 -692 0
457 -548 692 0
-457 -548 -692 0
-457 548 692 0
458 -690 -705 -269 0
-458 690 0
-458 705 0
-458 269 0
459 -548 -453 0
-459 548 0
-459 453 0
460 652 -461 0
460 -652 706 -409 0
-460 -652 -706 0
-460 652 461 0
-460 -652 409 0
461 -651 -450 -462 0
-461 651 0
-461 450 0
-461 462 0
462 671 -117 -463 -464 0
462 -671 117 -463 -464 0
-462 464 0
-462 671 117 0
-462 463 0
-462 -671 -117 0
463 -672 676 -138 174 0
463 672 -676 138 -174 0
463 672 676 138 174 0
463 -672 -676 -138 -174 0
-463 -672 138 0
-463 672 -138 0
-463 676 -174 0
-463 -676 174 0
464 -670 242 465 -466 0
464 670 -242 465 -466 0
-464 466 0
-464 670 242 0
-464 -465 0
-464 -670 -242 0
465 669 -238 0
465 -669 238 0
-465 -669 -238 0
-465 669 238 0
466 -675 -274 -467 0
466 675 274 -467 0
-466 467 0
-466 -675 274 0
-466 675 -274 0
467 -673 674 157 -283 0
467 -673 -674 -157 -283 0
467 673 674 157 283 0
467 673 -674 -157 283 0
-467 673 -283 0
-467 -673 283 0
-467 -674 157 0
-467 674 -157 0
468 661 -469 0
468 -661 188 469 0
-468 -188 469 0
-468 -661 -469 0
-468 661 469 0
469 -182 -453 0
469 -182 -183 470 0
-469 182 0
-469 183 453 0
-469 -470 453 0
470 -677 -249 0
470 677 249 0
-470 677 -249 0
-470 -677 249 0
471 -472 -478 -483 -487 0
-471 487 0
-471 472 0
-471 483 0
-471 478 0
472 -662 -473 474 0
472 662 473 474 0
472 -662 -188 474 0
-472 -474 0
-472 662 -473 0
-472 -662 188 473 0
473 -182 -219 0
473 -182 -126 -183 0
-473 182 0
-473 126 219 0
-473 183 219 0
474 641 -475 0
-474 -641 0
-474 475 0
475 -596 -476 0
475 -566 -596 -426 0
-475 596 0
-475 426 476 0
-475 566 476 0
476 555 -561 -477 0
-476 477 0
-476 561 0
-476 -555 0
477 605 -16 0
477 -605 16 0
-477 -605 -16 0
-477 605 16 0
478 -552 -479 482 0
478 144 -479 482 0
-478 479 0
-478 -482 0
-478 552 -144 0
479 256 480 0
479 -151 480 0
479 642 480 0
-479 -480 0
-479 -642 151 -256 0
480 614 -481 0
-480 -614 0
-480 481 0
481 -548 -30 0
-481 548 0
-481 30 0
482 -634 200 253 0
-482 634 0
-482 -253 0
-482 -200 0
483 205 484 -485 0
483 -597 484 -485 0
-483 485 0
-483 -484 0
-483 597 -205 0
484 -614 170 481 0
-484 614 0
-484 -481 0
-484 -170 0
485 -200 486 0
485 -250 486 0
485 632 486 0
-485 -486 0
-485 -632 200 250 0
486 633 -225 0
-486 -633 0
-486 225 0
487 641 -488 0
487 -151 -488 0
487 -475 -488 0
-487 488 0
-487 -641 151 475 0
488 -654 -489 -492 0
488 -234 -489 492 0
488 654 -489 492 0
-488 489 0
-488 654 -492 0
-488 -654 234 492 0
489 -635 490 -491 0
489 635 490 491 0
489 -635 -200 490 0
-489 -490 0
-489 635 -491 0
-489 -635 200 491 0
490 598 -146 0
-490 -598 0
-490 146 0
491 -596 53 0
-491 596 0
-491 -53 0
492 -182 242 0
-492 182 0
-492 -242 0
493 -11 -80 -494 0
-493 11 0
-493 80 0
-493 494 0
494 -541 -545 0
494 522 545 -628 0
-494 545 628 0
-494 541 -545 0
-494 -522 545 0
495 182 449 -496 0
495 449 -462 -496 0
-495 496 0
-495 -449 0
-495 -182 462 0
496 706 497 0
496 -652 497 0
496 409 497 0
-496 -497 0
-496 652 -706 -409 0
497 -650 651 652 704 0
-497 -704 0
-497 -652 0
-497 650 0
-497 -651 0
498 -101 -102 0
-498 101 0
-498 102 0
499 -581 584 500 -501 0
499 -581 -584 -500 -501 0
499 581 584 500 501 0
499 581 -584 -500 501 0
-499 581 -501 0
-499 -581 501 0
-499 -584 500 0
-499 584 -500 0
500 -83 201 0
-500 83 0
-500 -201 0
501 -83 204 0
-501 83 0
-501 -204 0
502 -580 585 -503 504 0
502 580 -585 503 -504 0
502 580 585 503 504 0
502 -580 -585 -503 -504 0
-502 -580 503 0
-502 580 -503 0
-502 585 -504 0
-502 -585 504 0
503 -83 143 0
-503 83 0
-503 -143 0
504 -83 159 0
-504 83 0
-504 -159 0
505 582 506 -507 -517 0
505 -582 -506 -507 -517 0
-505 517 0
-505 -582 506 0
-505 507 0
-505 582 -506 0
506 -83 145 0
-506 83 0
-506 -145 0
507 7 508 -513 0
507 -7 508 -510 0
-507 -508 0
-507 -7 510 0
-507 7 513 0
508 -626 80 -509 0
508 626 80 509 0
-508 -80 0
-508 -626 509 0
-508 626 -509 0
509 -11 494 0
-509 11 0
-509 -494 0
510 -570 -571 -575 -511 0
-510 511 0
-510 570 0
-510 575 0
-510 571 0
511 -556 -557 -512 0
-511 556 0
-511 557 0
-511 512 0
512 -560 -562 -566 -567 0
-512 567 0
-512 560 0
-512 566 0
-512 562 0
513 553 556 -514 -515 0
-513 -553 0
-513 515 0
-513 514 0
-513 -556 0
514 557 558 560 562 0
-514 -562 0
-514 -560 0
-514 -557 0
-514 -558 0
515 571 572 590 -516 0
-515 516 0
-515 -590 0
-515 -571 0
-515 -572 0
516 566 567 568 570 0
-516 -570 0
-516 -568 0
-516 -566 0
-516 -567 0
517 -583 587 -518 519 0
517 583 -587 518 -519 0
517 583 587 518 519 0
517 -583 -587 -518 -519 0
-517 -583 518 0
-517 583 -518 0
-517 587 -519 0
-517 -587 519 0
518 -83 255 0
-518 83 0
-518 -255 0
519 -83 286 0
-519 83 0
-519 -286 0
865 0
2 4 0
-2 -4 0
3 4 0
-3 -4 0
3 0

